GLPSOL--GLPK LP/MIP Solver 5.0
Parameter(s) specified in the command line:
 --lp ../modeles/3_209.lp --log 3_209.log
Reading problem data from '../modeles/3_209.lp'...
640 rows, 1260 columns, 4404 non-zeros
627 integer variables, all of which are binary
1909 lines were read
GLPK Integer Optimizer 5.0
640 rows, 1260 columns, 4404 non-zeros
627 integer variables, all of which are binary
Preprocessing...
618 constraint coefficient(s) were reduced
640 rows, 1257 columns, 4401 non-zeros
627 integer variables, all of which are binary
Scaling...
 A: min|aij| =  9.157e-05  max|aij| =  4.000e+00  ratio =  4.368e+04
GM: min|aij| =  6.917e-02  max|aij| =  1.446e+01  ratio =  2.090e+02
EQ: min|aij| =  4.785e-03  max|aij| =  1.000e+00  ratio =  2.090e+02
2N: min|aij| =  3.906e-03  max|aij| =  1.772e+00  ratio =  4.537e+02
Constructing initial basis...
Size of triangular part is 640
Solving LP relaxation...
GLPK Simplex Optimizer 5.0
640 rows, 1257 columns, 4401 non-zeros
      0: obj =   6.000000000e+00 inf =   1.450e+01 (7)
     44: obj =   4.998740842e-01 inf =   0.000e+00 (0)
*   155: obj =  -1.731838118e+00 inf =   4.797e-16 (0)
OPTIMAL LP SOLUTION FOUND
Integer optimization begins...
Long-step dual simplex will be used
+   155: mip =     not found yet >=              -inf        (1; 0)
+   391: >>>>>  -1.731838118e+00 >=  -1.731838118e+00 < 0.1% (236; 0)
+   391: mip =  -1.731838118e+00 >=     tree is empty   0.0% (0; 471)
INTEGER OPTIMAL SOLUTION FOUND
Time used:   0.2 secs
Memory used: 1.9 Mb (1967759 bytes)
